c Reduced graph for r22 generated by Cyril Grelier
p edge 285 3684
e 1 27
e 1 36
e 1 42
e 1 52
e 1 53
e 1 56
e 1 70
e 1 75
e 1 101
e 1 103
e 1 125
e 1 131
e 1 134
e 1 136
e 1 142
e 1 150
e 1 151
e 1 154
e 1 163
e 1 170
e 1 173
e 1 174
e 1 175
e 1 176
e 1 192
e 1 219
e 1 226
e 1 228
e 1 252
e 1 260
e 1 264
e 1 272
e 2 22
e 2 24
e 2 31
e 2 39
e 2 40
e 2 50
e 2 58
e 2 67
e 2 85
e 2 91
e 2 109
e 2 122
e 2 126
e 2 128
e 2 147
e 2 149
e 2 150
e 2 166
e 2 178
e 2 207
e 2 230
e 2 231
e 2 232
e 2 238
e 2 243
e 2 247
e 2 257
e 2 276
e 3 4
e 3 16
e 3 29
e 3 31
e 3 74
e 3 77
e 3 81
e 3 99
e 3 106
e 3 111
e 3 115
e 3 118
e 3 137
e 3 139
e 3 142
e 3 155
e 3 158
e 3 177
e 3 193
e 3 217
e 3 227
e 3 279
e 4 19
e 4 21
e 4 23
e 4 29
e 4 64
e 4 74
e 4 77
e 4 81
e 4 85
e 4 90
e 4 106
e 4 110
e 4 111
e 4 119
e 4 139
e 4 155
e 4 158
e 4 174
e 4 189
e 4 193
e 4 199
e 4 201
e 4 221
e 4 227
e 4 270
e 4 273
e 5 6
e 5 15
e 5 39
e 5 49
e 5 55
e 5 71
e 5 73
e 5 74
e 5 95
e 5 112
e 5 116
e 5 133
e 5 171
e 5 182
e 5 189
e 5 198
e 5 212
e 5 213
e 5 226
e 6 9
e 6 20
e 6 71
e 6 73
e 6 81
e 6 95
e 6 98
e 6 104
e 6 105
e 6 112
e 6 132
e 6 143
e 6 151
e 6 171
e 6 189
e 6 195
e 6 226
e 6 231
e 6 245
e 6 269
e 6 277
e 7 26
e 7 42
e 7 47
e 7 63
e 7 69
e 7 82
e 7 100
e 7 114
e 7 132
e 7 145
e 7 149
e 7 159
e 7 165
e 7 167
e 7 172
e 7 177
e 7 211
e 7 214
e 7 242
e 7 248
e 7 262
e 7 263
e 7 264
e 7 265
e 7 268
e 7 278
e 8 10
e 8 12
e 8 13
e 8 17
e 8 28
e 8 35
e 8 54
e 8 86
e 8 89
e 8 93
e 8 101
e 8 106
e 8 120
e 8 127
e 8 135
e 8 162
e 8 180
e 8 191
e 8 197
e 8 199
e 8 223
e 8 225
e 8 238
e 8 265
e 8 281
e 9 20
e 9 28
e 9 30
e 9 38
e 9 57
e 9 81
e 9 92
e 9 98
e 9 104
e 9 105
e 9 121
e 9 132
e 9 143
e 9 147
e 9 148
e 9 151
e 9 184
e 9 190
e 9 195
e 9 229
e 9 231
e 9 233
e 9 242
e 9 245
e 9 269
e 9 277
e 10 17
e 10 22
e 10 32
e 10 33
e 10 38
e 10 69
e 10 70
e 10 89
e 10 93
e 10 101
e 10 112
e 10 120
e 10 124
e 10 135
e 10 199
e 10 223
e 10 225
e 10 244
e 10 246
e 10 267
e 10 281
e 11 43
e 11 46
e 11 89
e 11 111
e 11 125
e 11 143
e 11 152
e 11 154
e 11 157
e 11 169
e 11 179
e 11 191
e 11 196
e 11 208
e 11 214
e 11 224
e 11 235
e 11 244
e 11 249
e 11 270
e 11 275
e 12 13
e 12 14
e 12 28
e 12 32
e 12 35
e 12 46
e 12 53
e 12 54
e 12 78
e 12 86
e 12 97
e 12 106
e 12 109
e 12 127
e 12 162
e 12 180
e 12 182
e 12 191
e 12 194
e 12 197
e 12 238
e 12 263
e 12 265
e 12 266
e 12 273
e 12 280
e 13 28
e 13 33
e 13 35
e 13 54
e 13 61
e 13 62
e 13 66
e 13 83
e 13 86
e 13 98
e 13 106
e 13 126
e 13 127
e 13 136
e 13 162
e 13 180
e 13 185
e 13 191
e 13 197
e 13 236
e 13 238
e 13 248
e 13 265
e 13 271
e 14 27
e 14 32
e 14 37
e 14 45
e 14 46
e 14 53
e 14 59
e 14 60
e 14 63
e 14 78
e 14 84
e 14 97
e 14 102
e 14 109
e 14 122
e 14 182
e 14 194
e 14 225
e 14 227
e 14 263
e 14 266
e 14 273
e 14 280
e 15 35
e 15 39
e 15 49
e 15 51
e 15 55
e 15 65
e 15 74
e 15 91
e 15 99
e 15 105
e 15 116
e 15 129
e 15 133
e 15 144
e 15 153
e 15 157
e 15 160
e 15 182
e 15 198
e 15 205
e 15 212
e 15 213
e 15 272
e 16 24
e 16 31
e 16 48
e 16 54
e 16 59
e 16 64
e 16 80
e 16 96
e 16 99
e 16 115
e 16 118
e 16 123
e 16 137
e 16 142
e 16 161
e 16 177
e 16 217
e 16 234
e 16 241
e 16 246
e 16 250
e 16 279
e 17 29
e 17 57
e 17 89
e 17 93
e 17 101
e 17 120
e 17 135
e 17 138
e 17 163
e 17 185
e 17 187
e 17 199
e 17 205
e 17 223
e 17 225
e 17 241
e 17 243
e 17 255
e 17 262
e 17 266
e 17 281
e 17 282
e 18 23
e 18 51
e 18 67
e 18 76
e 18 92
e 18 107
e 18 108
e 18 155
e 18 156
e 18 159
e 18 171
e 18 186
e 18 200
e 18 202
e 18 210
e 18 213
e 18 224
e 18 228
e 18 251
e 18 261
e 18 276
e 18 279
e 18 282
e 18 283
e 19 21
e 19 23
e 19 25
e 19 55
e 19 64
e 19 84
e 19 85
e 19 90
e 19 103
e 19 110
e 19 119
e 19 127
e 19 130
e 19 137
e 19 141
e 19 152
e 19 167
e 19 174
e 19 189
e 19 199
e 19 201
e 19 221
e 19 222
e 19 239
e 19 256
e 19 258
e 19 270
e 19 273
e 20 56
e 20 81
e 20 87
e 20 98
e 20 100
e 20 104
e 20 105
e 20 132
e 20 143
e 20 151
e 20 168
e 20 195
e 20 197
e 20 206
e 20 231
e 20 237
e 20 245
e 20 255
e 20 269
e 20 274
e 20 277
e 21 23
e 21 41
e 21 60
e 21 64
e 21 76
e 21 85
e 21 90
e 21 94
e 21 110
e 21 117
e 21 118
e 21 119
e 21 145
e 21 174
e 21 180
e 21 189
e 21 192
e 21 199
e 21 201
e 21 203
e 21 221
e 21 232
e 21 259
e 21 269
e 21 270
e 21 273
e 21 285
e 22 31
e 22 32
e 22 33
e 22 38
e 22 39
e 22 40
e 22 50
e 22 58
e 22 69
e 22 70
e 22 85
e 22 112
e 22 122
e 22 124
e 22 166
e 22 230
e 22 231
e 22 238
e 22 243
e 22 244
e 22 246
e 22 247
e 22 257
e 22 267
e 22 276
e 23 64
e 23 67
e 23 85
e 23 90
e 23 107
e 23 110
e 23 119
e 23 159
e 23 174
e 23 186
e 23 189
e 23 199
e 23 201
e 23 202
e 23 210
e 23 213
e 23 221
e 23 224
e 23 228
e 23 251
e 23 261
e 23 270
e 23 273
e 23 279
e 23 282
e 23 283
e 24 48
e 24 54
e 24 59
e 24 64
e 24 67
e 24 80
e 24 91
e 24 96
e 24 109
e 24 123
e 24 126
e 24 128
e 24 147
e 24 149
e 24 150
e 24 161
e 24 178
e 24 207
e 24 232
e 24 234
e 24 241
e 24 246
e 24 250
e 25 55
e 25 66
e 25 84
e 25 103
e 25 114
e 25 127
e 25 130
e 25 137
e 25 140
e 25 141
e 25 152
e 25 160
e 25 167
e 25 181
e 25 190
e 25 222
e 25 239
e 25 247
e 25 249
e 25 251
e 25 252
e 25 256
e 25 258
e 26 42
e 26 47
e 26 48
e 26 63
e 26 69
e 26 73
e 26 79
e 26 107
e 26 114
e 26 120
e 26 132
e 26 149
e 26 158
e 26 165
e 26 172
e 26 177
e 26 183
e 26 219
e 26 220
e 26 235
e 26 236
e 26 237
e 26 256
e 26 262
e 26 265
e 26 280
e 26 284
e 26 285
e 27 36
e 27 37
e 27 45
e 27 59
e 27 60
e 27 63
e 27 70
e 27 84
e 27 102
e 27 122
e 27 142
e 27 150
e 27 151
e 27 154
e 27 163
e 27 170
e 27 173
e 27 174
e 27 175
e 27 176
e 27 219
e 27 225
e 27 227
e 27 252
e 27 260
e 27 264
e 28 30
e 28 35
e 28 38
e 28 54
e 28 57
e 28 86
e 28 92
e 28 106
e 28 121
e 28 127
e 28 147
e 28 148
e 28 162
e 28 180
e 28 184
e 28 190
e 28 191
e 28 197
e 28 229
e 28 233
e 28 238
e 28 242
e 28 265
e 29 57
e 29 74
e 29 77
e 29 81
e 29 106
e 29 111
e 29 138
e 29 139
e 29 155
e 29 158
e 29 163
e 29 185
e 29 187
e 29 193
e 29 205
e 29 227
e 29 241
e 29 243
e 29 255
e 29 262
e 29 266
e 29 282
e 30 38
e 30 40
e 30 41
e 30 44
e 30 57
e 30 65
e 30 78
e 30 92
e 30 113
e 30 121
e 30 123
e 30 141
e 30 147
e 30 148
e 30 184
e 30 190
e 30 193
e 30 209
e 30 229
e 30 233
e 30 242
e 30 254
e 30 260
e 30 261
e 30 271
e 30 275
e 31 39
e 31 40
e 31 50
e 31 58
e 31 85
e 31 99
e 31 115
e 31 118
e 31 122
e 31 137
e 31 142
e 31 166
e 31 177
e 31 217
e 31 230
e 31 231
e 31 238
e 31 243
e 31 247
e 31 257
e 31 276
e 31 279
e 32 33
e 32 38
e 32 46
e 32 53
e 32 69
e 32 70
e 32 78
e 32 97
e 32 109
e 32 112
e 32 124
e 32 182
e 32 194
e 32 244
e 32 246
e 32 263
e 32 266
e 32 267
e 32 273
e 32 280
e 33 38
e 33 61
e 33 62
e 33 66
e 33 69
e 33 70
e 33 83
e 33 98
e 33 112
e 33 124
e 33 126
e 33 136
e 33 185
e 33 236
e 33 244
e 33 246
e 33 248
e 33 267
e 33 271
e 34 37
e 34 44
e 34 50
e 34 62
e 34 68
e 34 71
e 34 72
e 34 77
e 34 104
e 34 115
e 34 116
e 34 117
e 34 119
e 34 124
e 34 129
e 34 134
e 34 146
e 34 148
e 34 156
e 34 176
e 34 181
e 34 206
e 34 210
e 34 211
e 34 239
e 34 250
e 35 51
e 35 54
e 35 65
e 35 86
e 35 91
e 35 99
e 35 105
e 35 106
e 35 127
e 35 129
e 35 144
e 35 153
e 35 157
e 35 160
e 35 162
e 35 180
e 35 191
e 35 197
e 35 205
e 35 238
e 35 265
e 35 272
e 36 70
e 36 87
e 36 93
e 36 142
e 36 150
e 36 151
e 36 154
e 36 161
e 36 163
e 36 165
e 36 170
e 36 173
e 36 174
e 36 175
e 36 176
e 36 216
e 36 219
e 36 222
e 36 233
e 36 252
e 36 253
e 36 257
e 36 259
e 36 260
e 36 264
e 36 283
e 37 44
e 37 45
e 37 59
e 37 60
e 37 63
e 37 72
e 37 84
e 37 102
e 37 104
e 37 115
e 37 116
e 37 119
e 37 122
e 37 124
e 37 134
e 37 156
e 37 181
e 37 211
e 37 225
e 37 227
e 38 57
e 38 69
e 38 70
e 38 92
e 38 112
e 38 121
e 38 124
e 38 147
e 38 148
e 38 184
e 38 190
e 38 229
e 38 233
e 38 242
e 38 244
e 38 246
e 38 267
e 39 40
e 39 49
e 39 50
e 39 55
e 39 58
e 39 74
e 39 85
e 39 116
e 39 122
e 39 133
e 39 166
e 39 182
e 39 198
e 39 212
e 39 213
e 39 230
e 39 231
e 39 238
e 39 243
e 39 247
e 39 257
e 39 276
e 40 41
e 40 44
e 40 50
e 40 58
e 40 65
e 40 78
e 40 85
e 40 113
e 40 122
e 40 123
e 40 141
e 40 166
e 40 193
e 40 209
e 40 230
e 40 231
e 40 238
e 40 243
e 40 247
e 40 254
e 40 257
e 40 260
e 40 261
e 40 271
e 40 275
e 40 276
e 41 44
e 41 60
e 41 65
e 41 76
e 41 78
e 41 94
e 41 113
e 41 117
e 41 118
e 41 123
e 41 141
e 41 145
e 41 180
e 41 192
e 41 193
e 41 203
e 41 209
e 41 232
e 41 254
e 41 259
e 41 260
e 41 261
e 41 269
e 41 271
e 41 275
e 41 285
e 42 47
e 42 52
e 42 53
e 42 56
e 42 63
e 42 69
e 42 75
e 42 101
e 42 103
e 42 114
e 42 125
e 42 131
e 42 132
e 42 134
e 42 136
e 42 149
e 42 165
e 42 172
e 42 177
e 42 192
e 42 226
e 42 228
e 42 262
e 42 265
e 42 272
e 43 61
e 43 80
e 43 94
e 43 95
e 43 97
e 43 125
e 43 135
e 43 143
e 43 166
e 43 175
e 43 179
e 43 184
e 43 191
e 43 202
e 43 204
e 43 214
e 43 235
e 43 240
e 43 244
e 43 249
e 43 258
e 43 270
e 43 275
e 44 65
e 44 72
e 44 78
e 44 104
e 44 113
e 44 115
e 44 116
e 44 119
e 44 123
e 44 124
e 44 134
e 44 141
e 44 156
e 44 181
e 44 193
e 44 209
e 44 211
e 44 254
e 44 260
e 44 261
e 44 271
e 44 275
e 45 49
e 45 59
e 45 60
e 45 63
e 45 84
e 45 86
e 45 102
e 45 113
e 45 122
e 45 131
e 45 140
e 45 183
e 45 195
e 45 200
e 45 201
e 45 208
e 45 218
e 45 225
e 45 227
e 45 253
e 45 278
e 46 53
e 46 78
e 46 89
e 46 97
e 46 109
e 46 111
e 46 152
e 46 154
e 46 157
e 46 169
e 46 182
e 46 194
e 46 196
e 46 208
e 46 224
e 46 263
e 46 266
e 46 273
e 46 280
e 47 58
e 47 63
e 47 69
e 47 88
e 47 114
e 47 132
e 47 139
e 47 144
e 47 149
e 47 165
e 47 168
e 47 172
e 47 173
e 47 177
e 47 186
e 47 223
e 47 229
e 47 234
e 47 262
e 47 265
e 48 54
e 48 59
e 48 64
e 48 73
e 48 79
e 48 80
e 48 96
e 48 107
e 48 120
e 48 123
e 48 158
e 48 161
e 48 183
e 48 219
e 48 220
e 48 234
e 48 235
e 48 236
e 48 237
e 48 241
e 48 246
e 48 250
e 48 256
e 48 280
e 48 284
e 48 285
e 49 55
e 49 74
e 49 86
e 49 113
e 49 116
e 49 131
e 49 133
e 49 140
e 49 182
e 49 183
e 49 195
e 49 198
e 49 200
e 49 201
e 49 208
e 49 212
e 49 213
e 49 218
e 49 253
e 49 278
e 50 58
e 50 62
e 50 68
e 50 71
e 50 77
e 50 85
e 50 117
e 50 122
e 50 129
e 50 146
e 50 148
e 50 166
e 50 176
e 50 206
e 50 210
e 50 230
e 50 231
e 50 238
e 50 239
e 50 243
e 50 247
e 50 250
e 50 257
e 50 276
e 51 65
e 51 76
e 51 91
e 51 92
e 51 99
e 51 105
e 51 108
e 51 129
e 51 144
e 51 153
e 51 155
e 51 156
e 51 157
e 51 160
e 51 171
e 51 200
e 51 205
e 51 272
e 51 276
e 52 53
e 52 56
e 52 75
e 52 88
e 52 90
e 52 101
e 52 102
e 52 103
e 52 125
e 52 131
e 52 133
e 52 134
e 52 136
e 52 146
e 52 162
e 52 164
e 52 187
e 52 192
e 52 196
e 52 204
e 52 207
e 52 220
e 52 226
e 52 228
e 52 245
e 52 268
e 52 272
e 53 56
e 53 75
e 53 78
e 53 97
e 53 101
e 53 103
e 53 109
e 53 125
e 53 131
e 53 134
e 53 136
e 53 182
e 53 192
e 53 194
e 53 226
e 53 228
e 53 263
e 53 266
e 53 272
e 53 273
e 53 280
e 54 59
e 54 64
e 54 80
e 54 86
e 54 96
e 54 106
e 54 123
e 54 127
e 54 161
e 54 162
e 54 180
e 54 191
e 54 197
e 54 234
e 54 238
e 54 241
e 54 246
e 54 250
e 54 265
e 55 74
e 55 84
e 55 103
e 55 116
e 55 127
e 55 130
e 55 133
e 55 137
e 55 141
e 55 152
e 55 167
e 55 182
e 55 198
e 55 212
e 55 213
e 55 222
e 55 239
e 55 256
e 55 258
e 56 75
e 56 87
e 56 100
e 56 101
e 56 103
e 56 125
e 56 131
e 56 134
e 56 136
e 56 168
e 56 192
e 56 197
e 56 206
e 56 226
e 56 228
e 56 237
e 56 255
e 56 272
e 56 274
e 57 92
e 57 121
e 57 138
e 57 147
e 57 148
e 57 163
e 57 184
e 57 185
e 57 187
e 57 190
e 57 205
e 57 229
e 57 233
e 57 241
e 57 242
e 57 243
e 57 255
e 57 262
e 57 266
e 57 282
e 58 85
e 58 88
e 58 122
e 58 139
e 58 144
e 58 166
e 58 168
e 58 173
e 58 186
e 58 223
e 58 229
e 58 230
e 58 231
e 58 234
e 58 238
e 58 243
e 58 247
e 58 257
e 58 276
e 59 60
e 59 63
e 59 64
e 59 80
e 59 84
e 59 96
e 59 102
e 59 122
e 59 123
e 59 161
e 59 225
e 59 227
e 59 234
e 59 241
e 59 246
e 59 250
e 60 63
e 60 76
e 60 84
e 60 94
e 60 102
e 60 117
e 60 118
e 60 122
e 60 145
e 60 180
e 60 192
e 60 203
e 60 225
e 60 227
e 60 232
e 60 259
e 60 269
e 60 285
e 61 62
e 61 66
e 61 80
e 61 83
e 61 94
e 61 95
e 61 97
e 61 98
e 61 126
e 61 135
e 61 136
e 61 166
e 61 175
e 61 184
e 61 185
e 61 202
e 61 204
e 61 236
e 61 240
e 61 248
e 61 258
e 61 271
e 62 66
e 62 68
e 62 71
e 62 77
e 62 83
e 62 98
e 62 117
e 62 126
e 62 129
e 62 136
e 62 146
e 62 148
e 62 176
e 62 185
e 62 206
e 62 210
e 62 236
e 62 239
e 62 248
e 62 250
e 62 271
e 63 69
e 63 84
e 63 102
e 63 114
e 63 122
e 63 132
e 63 149
e 63 165
e 63 172
e 63 177
e 63 225
e 63 227
e 63 262
e 63 265
e 64 80
e 64 85
e 64 90
e 64 96
e 64 110
e 64 119
e 64 123
e 64 161
e 64 174
e 64 189
e 64 199
e 64 201
e 64 221
e 64 234
e 64 241
e 64 246
e 64 250
e 64 270
e 64 273
e 65 78
e 65 91
e 65 99
e 65 105
e 65 113
e 65 123
e 65 129
e 65 141
e 65 144
e 65 153
e 65 157
e 65 160
e 65 193
e 65 205
e 65 209
e 65 254
e 65 260
e 65 261
e 65 271
e 65 272
e 65 275
e 66 83
e 66 98
e 66 114
e 66 126
e 66 136
e 66 140
e 66 160
e 66 181
e 66 185
e 66 190
e 66 236
e 66 247
e 66 248
e 66 249
e 66 251
e 66 252
e 66 271
e 67 91
e 67 107
e 67 109
e 67 126
e 67 128
e 67 147
e 67 149
e 67 150
e 67 159
e 67 178
e 67 186
e 67 202
e 67 207
e 67 210
e 67 213
e 67 224
e 67 228
e 67 232
e 67 251
e 67 261
e 67 279
e 67 282
e 67 283
e 68 71
e 68 75
e 68 77
e 68 82
e 68 110
e 68 117
e 68 129
e 68 138
e 68 146
e 68 148
e 68 176
e 68 178
e 68 206
e 68 210
e 68 212
e 68 215
e 68 239
e 68 250
e 68 254
e 68 284
e 69 70
e 69 112
e 69 114
e 69 124
e 69 132
e 69 149
e 69 165
e 69 172
e 69 177
e 69 244
e 69 246
e 69 262
e 69 265
e 69 267
e 70 112
e 70 124
e 70 142
e 70 150
e 70 151
e 70 154
e 70 163
e 70 170
e 70 173
e 70 174
e 70 175
e 70 176
e 70 219
e 70 244
e 70 246
e 70 252
e 70 260
e 70 264
e 70 267
e 71 73
e 71 77
e 71 95
e 71 112
e 71 117
e 71 129
e 71 146
e 71 148
e 71 171
e 71 176
e 71 189
e 71 206
e 71 210
e 71 226
e 71 239
e 71 250
e 72 83
e 72 96
e 72 104
e 72 115
e 72 116
e 72 119
e 72 121
e 72 124
e 72 130
e 72 134
e 72 153
e 72 156
e 72 164
e 72 170
e 72 172
e 72 179
e 72 181
e 72 188
e 72 194
e 72 203
e 72 211
e 72 215
e 72 218
e 72 230
e 72 274
e 72 281
e 73 79
e 73 95
e 73 107
e 73 112
e 73 120
e 73 158
e 73 171
e 73 183
e 73 189
e 73 219
e 73 220
e 73 226
e 73 235
e 73 236
e 73 237
e 73 256
e 73 280
e 73 284
e 73 285
e 74 77
e 74 81
e 74 106
e 74 111
e 74 116
e 74 133
e 74 139
e 74 155
e 74 158
e 74 182
e 74 193
e 74 198
e 74 212
e 74 213
e 74 227
e 75 82
e 75 101
e 75 103
e 75 110
e 75 125
e 75 131
e 75 134
e 75 136
e 75 138
e 75 178
e 75 192
e 75 212
e 75 215
e 75 226
e 75 228
e 75 254
e 75 272
e 75 284
e 76 92
e 76 94
e 76 108
e 76 117
e 76 118
e 76 145
e 76 155
e 76 156
e 76 171
e 76 180
e 76 192
e 76 200
e 76 203
e 76 232
e 76 259
e 76 269
e 76 276
e 76 285
e 77 81
e 77 106
e 77 111
e 77 117
e 77 129
e 77 139
e 77 146
e 77 148
e 77 155
e 77 158
e 77 176
e 77 193
e 77 206
e 77 210
e 77 227
e 77 239
e 77 250
e 78 97
e 78 109
e 78 113
e 78 123
e 78 141
e 78 182
e 78 193
e 78 194
e 78 209
e 78 254
e 78 260
e 78 261
e 78 263
e 78 266
e 78 271
e 78 273
e 78 275
e 78 280
e 79 107
e 79 108
e 79 120
e 79 128
e 79 158
e 79 169
e 79 183
e 79 188
e 79 198
e 79 209
e 79 216
e 79 217
e 79 219
e 79 220
e 79 221
e 79 235
e 79 236
e 79 237
e 79 240
e 79 256
e 79 267
e 79 277
e 79 280
e 79 284
e 79 285
e 80 94
e 80 95
e 80 96
e 80 97
e 80 123
e 80 135
e 80 161
e 80 166
e 80 175
e 80 184
e 80 202
e 80 204
e 80 234
e 80 240
e 80 241
e 80 246
e 80 250
e 80 258
e 81 98
e 81 104
e 81 105
e 81 106
e 81 111
e 81 132
e 81 139
e 81 143
e 81 151
e 81 155
e 81 158
e 81 193
e 81 195
e 81 227
e 81 231
e 81 245
e 81 269
e 81 277
e 82 100
e 82 110
e 82 138
e 82 145
e 82 159
e 82 167
e 82 178
e 82 211
e 82 212
e 82 214
e 82 215
e 82 242
e 82 248
e 82 254
e 82 263
e 82 264
e 82 268
e 82 278
e 82 284
e 83 96
e 83 98
e 83 121
e 83 126
e 83 130
e 83 136
e 83 153
e 83 164
e 83 170
e 83 172
e 83 179
e 83 185
e 83 188
e 83 194
e 83 203
e 83 215
e 83 218
e 83 230
e 83 236
e 83 248
e 83 271
e 83 274
e 83 281
e 84 102
e 84 103
e 84 122
e 84 127
e 84 130
e 84 137
e 84 141
e 84 152
e 84 167
e 84 222
e 84 225
e 84 227
e 84 239
e 84 256
e 84 258
e 85 90
e 85 110
e 85 119
e 85 122
e 85 166
e 85 174
e 85 189
e 85 199
e 85 201
e 85 221
e 85 230
e 85 231
e 85 238
e 85 243
e 85 247
e 85 257
e 85 270
e 85 273
e 85 276
e 86 106
e 86 113
e 86 127
e 86 131
e 86 140
e 86 162
e 86 180
e 86 183
e 86 191
e 86 195
e 86 197
e 86 200
e 86 201
e 86 208
e 86 218
e 86 238
e 86 253
e 86 265
e 86 278
e 87 93
e 87 100
e 87 161
e 87 165
e 87 168
e 87 197
e 87 206
e 87 216
e 87 222
e 87 233
e 87 237
e 87 253
e 87 255
e 87 257
e 87 259
e 87 274
e 87 283
e 88 90
e 88 102
e 88 133
e 88 139
e 88 144
e 88 146
e 88 162
e 88 164
e 88 168
e 88 173
e 88 186
e 88 187
e 88 196
e 88 204
e 88 207
e 88 220
e 88 223
e 88 229
e 88 234
e 88 245
e 88 268
e 89 93
e 89 101
e 89 111
e 89 120
e 89 135
e 89 152
e 89 154
e 89 157
e 89 169
e 89 196
e 89 199
e 89 208
e 89 223
e 89 224
e 89 225
e 89 281
e 90 102
e 90 110
e 90 119
e 90 133
e 90 146
e 90 162
e 90 164
e 90 174
e 90 187
e 90 189
e 90 196
e 90 199
e 90 201
e 90 204
e 90 207
e 90 220
e 90 221
e 90 245
e 90 268
e 90 270
e 90 273
e 91 99
e 91 105
e 91 109
e 91 126
e 91 128
e 91 129
e 91 144
e 91 147
e 91 149
e 91 150
e 91 153
e 91 157
e 91 160
e 91 178
e 91 205
e 91 207
e 91 232
e 91 272
e 92 108
e 92 121
e 92 147
e 92 148
e 92 155
e 92 156
e 92 171
e 92 184
e 92 190
e 92 200
e 92 229
e 92 233
e 92 242
e 92 276
e 93 101
e 93 120
e 93 135
e 93 161
e 93 165
e 93 199
e 93 216
e 93 222
e 93 223
e 93 225
e 93 233
e 93 253
e 93 257
e 93 259
e 93 281
e 93 283
e 94 95
e 94 97
e 94 117
e 94 118
e 94 135
e 94 145
e 94 166
e 94 175
e 94 180
e 94 184
e 94 192
e 94 202
e 94 203
e 94 204
e 94 232
e 94 240
e 94 258
e 94 259
e 94 269
e 94 285
e 95 97
e 95 112
e 95 135
e 95 166
e 95 171
e 95 175
e 95 184
e 95 189
e 95 202
e 95 204
e 95 226
e 95 240
e 95 258
e 96 121
e 96 123
e 96 130
e 96 153
e 96 161
e 96 164
e 96 170
e 96 172
e 96 179
e 96 188
e 96 194
e 96 203
e 96 215
e 96 218
e 96 230
e 96 234
e 96 241
e 96 246
e 96 250
e 96 274
e 96 281
e 97 109
e 97 135
e 97 166
e 97 175
e 97 182
e 97 184
e 97 194
e 97 202
e 97 204
e 97 240
e 97 258
e 97 263
e 97 266
e 97 273
e 97 280
e 98 104
e 98 105
e 98 126
e 98 132
e 98 136
e 98 143
e 98 151
e 98 185
e 98 195
e 98 231
e 98 236
e 98 245
e 98 248
e 98 269
e 98 271
e 98 277
e 99 105
e 99 115
e 99 118
e 99 129
e 99 137
e 99 142
e 99 144
e 99 153
e 99 157
e 99 160
e 99 177
e 99 205
e 99 217
e 99 272
e 99 279
e 100 145
e 100 159
e 100 167
e 100 168
e 100 197
e 100 206
e 100 211
e 100 214
e 100 237
e 100 242
e 100 248
e 100 255
e 100 263
e 100 264
e 100 268
e 100 274
e 100 278
e 101 103
e 101 120
e 101 125
e 101 131
e 101 134
e 101 135
e 101 136
e 101 192
e 101 199
e 101 223
e 101 225
e 101 226
e 101 228
e 101 272
e 101 281
e 102 122
e 102 133
e 102 146
e 102 162
e 102 164
e 102 187
e 102 196
e 102 204
e 102 207
e 102 220
e 102 225
e 102 227
e 102 245
e 102 268
e 103 125
e 103 127
e 103 130
e 103 131
e 103 134
e 103 136
e 103 137
e 103 141
e 103 152
e 103 167
e 103 192
e 103 222
e 103 226
e 103 228
e 103 239
e 103 256
e 103 258
e 103 272
e 104 105
e 104 115
e 104 116
e 104 119
e 104 124
e 104 132
e 104 134
e 104 143
e 104 151
e 104 156
e 104 181
e 104 195
e 104 211
e 104 231
e 104 245
e 104 269
e 104 277
e 105 129
e 105 132
e 105 143
e 105 144
e 105 151
e 105 153
e 105 157
e 105 160
e 105 195
e 105 205
e 105 231
e 105 245
e 105 269
e 105 272
e 105 277
e 106 111
e 106 127
e 106 139
e 106 155
e 106 158
e 106 162
e 106 180
e 106 191
e 106 193
e 106 197
e 106 227
e 106 238
e 106 265
e 107 120
e 107 158
e 107 159
e 107 183
e 107 186
e 107 202
e 107 210
e 107 213
e 107 219
e 107 220
e 107 224
e 107 228
e 107 235
e 107 236
e 107 237
e 107 251
e 107 256
e 107 261
e 107 279
e 107 280
e 107 282
e 107 283
e 107 284
e 107 285
e 108 128
e 108 155
e 108 156
e 108 169
e 108 171
e 108 188
e 108 198
e 108 200
e 108 209
e 108 216
e 108 217
e 108 221
e 108 240
e 108 267
e 108 276
e 108 277
e 109 126
e 109 128
e 109 147
e 109 149
e 109 150
e 109 178
e 109 182
e 109 194
e 109 207
e 109 232
e 109 263
e 109 266
e 109 273
e 109 280
e 110 119
e 110 138
e 110 174
e 110 178
e 110 189
e 110 199
e 110 201
e 110 212
e 110 215
e 110 221
e 110 254
e 110 270
e 110 273
e 110 284
e 111 139
e 111 152
e 111 154
e 111 155
e 111 157
e 111 158
e 111 169
e 111 193
e 111 196
e 111 208
e 111 224
e 111 227
e 112 124
e 112 171
e 112 189
e 112 226
e 112 244
e 112 246
e 112 267
e 113 123
e 113 131
e 113 140
e 113 141
e 113 183
e 113 193
e 113 195
e 113 200
e 113 201
e 113 208
e 113 209
e 113 218
e 113 253
e 113 254
e 113 260
e 113 261
e 113 271
e 113 275
e 113 278
e 114 132
e 114 140
e 114 149
e 114 160
e 114 165
e 114 172
e 114 177
e 114 181
e 114 190
e 114 247
e 114 249
e 114 251
e 114 252
e 114 262
e 114 265
e 115 116
e 115 118
e 115 119
e 115 124
e 115 134
e 115 137
e 115 142
e 115 156
e 115 177
e 115 181
e 115 211
e 115 217
e 115 279
e 116 119
e 116 124
e 116 133
e 116 134
e 116 156
e 116 181
e 116 182
e 116 198
e 116 211
e 116 212
e 116 213
e 117 118
e 117 129
e 117 145
e 117 146
e 117 148
e 117 176
e 117 180
e 117 192
e 117 203
e 117 206
e 117 210
e 117 232
e 117 239
e 117 250
e 117 259
e 117 269
e 117 285
e 118 137
e 118 142
e 118 145
e 118 177
e 118 180
e 118 192
e 118 203
e 118 217
e 118 232
e 118 259
e 118 269
e 118 279
e 118 285
e 119 124
e 119 134
e 119 156
e 119 174
e 119 181
e 119 189
e 119 199
e 119 201
e 119 211
e 119 221
e 119 270
e 119 273
e 120 135
e 120 158
e 120 183
e 120 199
e 120 219
e 120 220
e 120 223
e 120 225
e 120 235
e 120 236
e 120 237
e 120 256
e 120 280
e 120 281
e 120 284
e 120 285
e 121 130
e 121 147
e 121 148
e 121 153
e 121 164
e 121 170
e 121 172
e 121 179
e 121 184
e 121 188
e 121 190
e 121 194
e 121 203
e 121 215
e 121 218
e 121 229
e 121 230
e 121 233
e 121 242
e 121 274
e 121 281
e 122 166
e 122 225
e 122 227
e 122 230
e 122 231
e 122 238
e 122 243
e 122 247
e 122 257
e 122 276
e 123 141
e 123 161
e 123 193
e 123 209
e 123 234
e 123 241
e 123 246
e 123 250
e 123 254
e 123 260
e 123 261
e 123 271
e 123 275
e 124 134
e 124 156
e 124 181
e 124 211
e 124 244
e 124 246
e 124 267
e 125 131
e 125 134
e 125 136
e 125 143
e 125 179
e 125 191
e 125 192
e 125 214
e 125 226
e 125 228
e 125 235
e 125 244
e 125 249
e 125 270
e 125 272
e 125 275
e 126 128
e 126 136
e 126 147
e 126 149
e 126 150
e 126 178
e 126 185
e 126 207
e 126 232
e 126 236
e 126 248
e 126 271
e 127 130
e 127 137
e 127 141
e 127 152
e 127 162
e 127 167
e 127 180
e 127 191
e 127 197
e 127 222
e 127 238
e 127 239
e 127 256
e 127 258
e 127 265
e 128 147
e 128 149
e 128 150
e 128 169
e 128 178
e 128 188
e 128 198
e 128 207
e 128 209
e 128 216
e 128 217
e 128 221
e 128 232
e 128 240
e 128 267
e 128 277
e 129 144
e 129 146
e 129 148
e 129 153
e 129 157
e 129 160
e 129 176
e 129 205
e 129 206
e 129 210
e 129 239
e 129 250
e 129 272
e 130 137
e 130 141
e 130 152
e 130 153
e 130 164
e 130 167
e 130 170
e 130 172
e 130 179
e 130 188
e 130 194
e 130 203
e 130 215
e 130 218
e 130 222
e 130 230
e 130 239
e 130 256
e 130 258
e 130 274
e 130 281
e 131 134
e 131 136
e 131 140
e 131 183
e 131 192
e 131 195
e 131 200
e 131 201
e 131 208
e 131 218
e 131 226
e 131 228
e 131 253
e 131 272
e 131 278
e 132 143
e 132 149
e 132 151
e 132 165
e 132 172
e 132 177
e 132 195
e 132 231
e 132 245
e 132 262
e 132 265
e 132 269
e 132 277
e 133 146
e 133 162
e 133 164
e 133 182
e 133 187
e 133 196
e 133 198
e 133 204
e 133 207
e 133 212
e 133 213
e 133 220
e 133 245
e 133 268
e 134 136
e 134 156
e 134 181
e 134 192
e 134 211
e 134 226
e 134 228
e 134 272
e 135 166
e 135 175
e 135 184
e 135 199
e 135 202
e 135 204
e 135 223
e 135 225
e 135 240
e 135 258
e 135 281
e 136 185
e 136 192
e 136 226
e 136 228
e 136 236
e 136 248
e 136 271
e 136 272
e 137 141
e 137 142
e 137 152
e 137 167
e 137 177
e 137 217
e 137 222
e 137 239
e 137 256
e 137 258
e 137 279
e 138 163
e 138 178
e 138 185
e 138 187
e 138 205
e 138 212
e 138 215
e 138 241
e 138 243
e 138 254
e 138 255
e 138 262
e 138 266
e 138 282
e 138 284
e 139 144
e 139 155
e 139 158
e 139 168
e 139 173
e 139 186
e 139 193
e 139 223
e 139 227
e 139 229
e 139 234
e 140 160
e 140 181
e 140 183
e 140 190
e 140 195
e 140 200
e 140 201
e 140 208
e 140 218
e 140 247
e 140 249
e 140 251
e 140 252
e 140 253
e 140 278
e 141 152
e 141 167
e 141 193
e 141 209
e 141 222
e 141 239
e 141 254
e 141 256
e 141 258
e 141 260
e 141 261
e 141 271
e 141 275
e 142 150
e 142 151
e 142 154
e 142 163
e 142 170
e 142 173
e 142 174
e 142 175
e 142 176
e 142 177
e 142 217
e 142 219
e 142 252
e 142 260
e 142 264
e 142 279
e 143 151
e 143 179
e 143 191
e 143 195
e 143 214
e 143 231
e 143 235
e 143 244
e 143 245
e 143 249
e 143 269
e 143 270
e 143 275
e 143 277
e 144 153
e 144 157
e 144 160
e 144 168
e 144 173
e 144 186
e 144 205
e 144 223
e 144 229
e 144 234
e 144 272
e 145 159
e 145 167
e 145 180
e 145 192
e 145 203
e 145 211
e 145 214
e 145 232
e 145 242
e 145 248
e 145 259
e 145 263
e 145 264
e 145 268
e 145 269
e 145 278
e 145 285
e 146 148
e 146 162
e 146 164
e 146 176
e 146 187
e 146 196
e 146 204
e 146 206
e 146 207
e 146 210
e 146 220
e 146 239
e 146 245
e 146 250
e 146 268
e 147 148
e 147 149
e 147 150
e 147 178
e 147 184
e 147 190
e 147 207
e 147 229
e 147 232
e 147 233
e 147 242
e 148 176
e 148 184
e 148 190
e 148 206
e 148 210
e 148 229
e 148 233
e 148 239
e 148 242
e 148 250
e 149 150
e 149 165
e 149 172
e 149 177
e 149 178
e 149 207
e 149 232
e 149 262
e 149 265
e 150 151
e 150 154
e 150 163
e 150 170
e 150 173
e 150 174
e 150 175
e 150 176
e 150 178
e 150 207
e 150 219
e 150 232
e 150 252
e 150 260
e 150 264
e 151 154
e 151 163
e 151 170
e 151 173
e 151 174
e 151 175
e 151 176
e 151 195
e 151 219
e 151 231
e 151 245
e 151 252
e 151 260
e 151 264
e 151 269
e 151 277
e 152 154
e 152 157
e 152 167
e 152 169
e 152 196
e 152 208
e 152 222
e 152 224
e 152 239
e 152 256
e 152 258
e 153 157
e 153 160
e 153 164
e 153 170
e 153 172
e 153 179
e 153 188
e 153 194
e 153 203
e 153 205
e 153 215
e 153 218
e 153 230
e 153 272
e 153 274
e 153 281
e 154 157
e 154 163
e 154 169
e 154 170
e 154 173
e 154 174
e 154 175
e 154 176
e 154 196
e 154 208
e 154 219
e 154 224
e 154 252
e 154 260
e 154 264
e 155 156
e 155 158
e 155 171
e 155 193
e 155 200
e 155 227
e 155 276
e 156 171
e 156 181
e 156 200
e 156 211
e 156 276
e 157 160
e 157 169
e 157 196
e 157 205
e 157 208
e 157 224
e 157 272
e 158 183
e 158 193
e 158 219
e 158 220
e 158 227
e 158 235
e 158 236
e 158 237
e 158 256
e 158 280
e 158 284
e 158 285
e 159 167
e 159 186
e 159 202
e 159 210
e 159 211
e 159 213
e 159 214
e 159 224
e 159 228
e 159 242
e 159 248
e 159 251
e 159 261
e 159 263
e 159 264
e 159 268
e 159 278
e 159 279
e 159 282
e 159 283
e 160 181
e 160 190
e 160 205
e 160 247
e 160 249
e 160 251
e 160 252
e 160 272
e 161 165
e 161 216
e 161 222
e 161 233
e 161 234
e 161 241
e 161 246
e 161 250
e 161 253
e 161 257
e 161 259
e 161 283
e 162 164
e 162 180
e 162 187
e 162 191
e 162 196
e 162 197
e 162 204
e 162 207
e 162 220
e 162 238
e 162 245
e 162 265
e 162 268
e 163 170
e 163 173
e 163 174
e 163 175
e 163 176
e 163 185
e 163 187
e 163 205
e 163 219
e 163 241
e 163 243
e 163 252
e 163 255
e 163 260
e 163 262
e 163 264
e 163 266
e 163 282
e 164 170
e 164 172
e 164 179
e 164 187
e 164 188
e 164 194
e 164 196
e 164 203
e 164 204
e 164 207
e 164 215
e 164 218
e 164 220
e 164 230
e 164 245
e 164 268
e 164 274
e 164 281
e 165 172
e 165 177
e 165 216
e 165 222
e 165 233
e 165 253
e 165 257
e 165 259
e 165 262
e 165 265
e 165 283
e 166 175
e 166 184
e 166 202
e 166 204
e 166 230
e 166 231
e 166 238
e 166 240
e 166 243
e 166 247
e 166 257
e 166 258
e 166 276
e 167 211
e 167 214
e 167 222
e 167 239
e 167 242
e 167 248
e 167 256
e 167 258
e 167 263
e 167 264
e 167 268
e 167 278
e 168 173
e 168 186
e 168 197
e 168 206
e 168 223
e 168 229
e 168 234
e 168 237
e 168 255
e 168 274
e 169 188
e 169 196
e 169 198
e 169 208
e 169 209
e 169 216
e 169 217
e 169 221
e 169 224
e 169 240
e 169 267
e 169 277
e 170 172
e 170 173
e 170 174
e 170 175
e 170 176
e 170 179
e 170 188
e 170 194
e 170 203
e 170 215
e 170 218
e 170 219
e 170 230
e 170 252
e 170 260
e 170 264
e 170 274
e 170 281
e 171 189
e 171 200
e 171 226
e 171 276
e 172 177
e 172 179
e 172 188
e 172 194
e 172 203
e 172 215
e 172 218
e 172 230
e 172 262
e 172 265
e 172 274
e 172 281
e 173 174
e 173 175
e 173 176
e 173 186
e 173 219
e 173 223
e 173 229
e 173 234
e 173 252
e 173 260
e 173 264
e 174 175
e 174 176
e 174 189
e 174 199
e 174 201
e 174 219
e 174 221
e 174 252
e 174 260
e 174 264
e 174 270
e 174 273
e 175 176
e 175 184
e 175 202
e 175 204
e 175 219
e 175 240
e 175 252
e 175 258
e 175 260
e 175 264
e 176 206
e 176 210
e 176 219
e 176 239
e 176 250
e 176 252
e 176 260
e 176 264
e 177 217
e 177 262
e 177 265
e 177 279
e 178 207
e 178 212
e 178 215
e 178 232
e 178 254
e 178 284
e 179 188
e 179 191
e 179 194
e 179 203
e 179 214
e 179 215
e 179 218
e 179 230
e 179 235
e 179 244
e 179 249
e 179 270
e 179 274
e 179 275
e 179 281
e 180 191
e 180 192
e 180 197
e 180 203
e 180 232
e 180 238
e 180 259
e 180 265
e 180 269
e 180 285
e 181 190
e 181 211
e 181 247
e 181 249
e 181 251
e 181 252
e 182 194
e 182 198
e 182 212
e 182 213
e 182 263
e 182 266
e 182 273
e 182 280
e 183 195
e 183 200
e 183 201
e 183 208
e 183 218
e 183 219
e 183 220
e 183 235
e 183 236
e 183 237
e 183 253
e 183 256
e 183 278
e 183 280
e 183 284
e 183 285
e 184 190
e 184 202
e 184 204
e 184 229
e 184 233
e 184 240
e 184 242
e 184 258
e 185 187
e 185 205
e 185 236
e 185 241
e 185 243
e 185 248
e 185 255
e 185 262
e 185 266
e 185 271
e 185 282
e 186 202
e 186 210
e 186 213
e 186 223
e 186 224
e 186 228
e 186 229
e 186 234
e 186 251
e 186 261
e 186 279
e 186 282
e 186 283
e 187 196
e 187 204
e 187 205
e 187 207
e 187 220
e 187 241
e 187 243
e 187 245
e 187 255
e 187 262
e 187 266
e 187 268
e 187 282
e 188 194
e 188 198
e 188 203
e 188 209
e 188 215
e 188 216
e 188 217
e 188 218
e 188 221
e 188 230
e 188 240
e 188 267
e 188 274
e 188 277
e 188 281
e 189 199
e 189 201
e 189 221
e 189 226
e 189 270
e 189 273
e 190 229
e 190 233
e 190 242
e 190 247
e 190 249
e 190 251
e 190 252
e 191 197
e 191 214
e 191 235
e 191 238
e 191 244
e 191 249
e 191 265
e 191 270
e 191 275
e 192 203
e 192 226
e 192 228
e 192 232
e 192 259
e 192 269
e 192 272
e 192 285
e 193 209
e 193 227
e 193 254
e 193 260
e 193 261
e 193 271
e 193 275
e 194 203
e 194 215
e 194 218
e 194 230
e 194 263
e 194 266
e 194 273
e 194 274
e 194 280
e 194 281
e 195 200
e 195 201
e 195 208
e 195 218
e 195 231
e 195 245
e 195 253
e 195 269
e 195 277
e 195 278
e 196 204
e 196 207
e 196 208
e 196 220
e 196 224
e 196 245
e 196 268
e 197 206
e 197 237
e 197 238
e 197 255
e 197 265
e 197 274
e 198 209
e 198 212
e 198 213
e 198 216
e 198 217
e 198 221
e 198 240
e 198 267
e 198 277
e 199 201
e 199 221
e 199 223
e 199 225
e 199 270
e 199 273
e 199 281
e 200 201
e 200 208
e 200 218
e 200 253
e 200 276
e 200 278
e 201 208
e 201 218
e 201 221
e 201 253
e 201 270
e 201 273
e 201 278
e 202 204
e 202 210
e 202 213
e 202 224
e 202 228
e 202 240
e 202 251
e 202 258
e 202 261
e 202 279
e 202 282
e 202 283
e 203 215
e 203 218
e 203 230
e 203 232
e 203 259
e 203 269
e 203 274
e 203 281
e 203 285
e 204 207
e 204 220
e 204 240
e 204 245
e 204 258
e 204 268
e 205 241
e 205 243
e 205 255
e 205 262
e 205 266
e 205 272
e 205 282
e 206 210
e 206 237
e 206 239
e 206 250
e 206 255
e 206 274
e 207 220
e 207 232
e 207 245
e 207 268
e 208 218
e 208 224
e 208 253
e 208 278
e 209 216
e 209 217
e 209 221
e 209 240
e 209 254
e 209 260
e 209 261
e 209 267
e 209 271
e 209 275
e 209 277
e 210 213
e 210 224
e 210 228
e 210 239
e 210 250
e 210 251
e 210 261
e 210 279
e 210 282
e 210 283
e 211 214
e 211 242
e 211 248
e 211 263
e 211 264
e 211 268
e 211 278
e 212 213
e 212 215
e 212 254
e 212 284
e 213 224
e 213 228
e 213 251
e 213 261
e 213 279
e 213 282
e 213 283
e 214 235
e 214 242
e 214 244
e 214 248
e 214 249
e 214 263
e 214 264
e 214 268
e 214 270
e 214 275
e 214 278
e 215 218
e 215 230
e 215 254
e 215 274
e 215 281
e 215 284
e 216 217
e 216 221
e 216 222
e 216 233
e 216 240
e 216 253
e 216 257
e 216 259
e 216 267
e 216 277
e 216 283
e 217 221
e 217 240
e 217 267
e 217 277
e 217 279
e 218 230
e 218 253
e 218 274
e 218 278
e 218 281
e 219 220
e 219 235
e 219 236
e 219 237
e 219 252
e 219 256
e 219 260
e 219 264
e 219 280
e 219 284
e 219 285
e 220 235
e 220 236
e 220 237
e 220 245
e 220 256
e 220 268
e 220 280
e 220 284
e 220 285
e 221 240
e 221 267
e 221 270
e 221 273
e 221 277
e 222 233
e 222 239
e 222 253
e 222 256
e 222 257
e 222 258
e 222 259
e 222 283
e 223 225
e 223 229
e 223 234
e 223 281
e 224 228
e 224 251
e 224 261
e 224 279
e 224 282
e 224 283
e 225 227
e 225 281
e 226 228
e 226 272
e 228 251
e 228 261
e 228 272
e 228 279
e 228 282
e 228 283
e 229 233
e 229 234
e 229 242
e 230 231
e 230 238
e 230 243
e 230 247
e 230 257
e 230 274
e 230 276
e 230 281
e 231 238
e 231 243
e 231 245
e 231 247
e 231 257
e 231 269
e 231 276
e 231 277
e 232 259
e 232 269
e 232 285
e 233 242
e 233 253
e 233 257
e 233 259
e 233 283
e 234 241
e 234 246
e 234 250
e 235 236
e 235 237
e 235 244
e 235 249
e 235 256
e 235 270
e 235 275
e 235 280
e 235 284
e 235 285
e 236 237
e 236 248
e 236 256
e 236 271
e 236 280
e 236 284
e 236 285
e 237 255
e 237 256
e 237 274
e 237 280
e 237 284
e 237 285
e 238 243
e 238 247
e 238 257
e 238 265
e 238 276
e 239 250
e 239 256
e 239 258
e 240 258
e 240 267
e 240 277
e 241 243
e 241 246
e 241 250
e 241 255
e 241 262
e 241 266
e 241 282
e 242 248
e 242 263
e 242 264
e 242 268
e 242 278
e 243 247
e 243 255
e 243 257
e 243 262
e 243 266
e 243 276
e 243 282
e 244 246
e 244 249
e 244 267
e 244 270
e 244 275
e 245 268
e 245 269
e 245 277
e 246 250
e 246 267
e 247 249
e 247 251
e 247 252
e 247 257
e 247 276
e 248 263
e 248 264
e 248 268
e 248 271
e 248 278
e 249 251
e 249 252
e 249 270
e 249 275
e 251 252
e 251 261
e 251 279
e 251 282
e 251 283
e 252 260
e 252 264
e 253 257
e 253 259
e 253 278
e 253 283
e 254 260
e 254 261
e 254 271
e 254 275
e 254 284
e 255 262
e 255 266
e 255 274
e 255 282
e 256 258
e 256 280
e 256 284
e 256 285
e 257 259
e 257 276
e 257 283
e 259 269
e 259 283
e 259 285
e 260 261
e 260 264
e 260 271
e 260 275
e 261 271
e 261 275
e 261 279
e 261 282
e 261 283
e 262 265
e 262 266
e 262 282
e 263 264
e 263 266
e 263 268
e 263 273
e 263 278
e 263 280
e 264 268
e 264 278
e 266 273
e 266 280
e 266 282
e 267 277
e 268 278
e 269 277
e 269 285
e 270 273
e 270 275
e 271 275
e 273 280
e 274 281
e 279 282
e 279 283
e 280 284
e 280 285
e 282 283
e 284 285
